# Residuals    
# Time         	p              	sigmaxx        	sigmaxy        	sigmayy        	sigmazz        
0.05           	1.00000000e+00	1.00000000e+00	1.00000000e+00	1.00000000e+00	0.00000000e+00
0.1            	9.96336780e-01	4.43880720e-01	4.99384320e-01	4.90971890e-01	0.00000000e+00
0.15           	9.93529310e-01	3.03861450e-01	3.28052160e-01	3.85228300e-01	0.00000000e+00
0.2            	9.90968380e-01	2.24152320e-01	2.34571470e-01	3.26496390e-01	0.00000000e+00
0.25           	9.88213170e-01	1.70323080e-01	1.73645590e-01	2.76073630e-01	0.00000000e+00
0.3            	9.83692340e-01	1.30557490e-01	1.29226960e-01	2.27010130e-01	0.00000000e+00
0.35           	9.82009560e-01	9.86659500e-02	9.40268550e-02	1.77911060e-01	0.00000000e+00
0.4            	4.30251760e-01	7.04610800e-02	6.39745810e-02	1.27710440e-01	0.00000000e+00
0.45           	1.85352610e-01	4.46586590e-02	3.69829210e-02	7.64512530e-02	0.00000000e+00
0.5            	6.09344740e-01	2.07055420e-02	1.16799900e-02	2.43991570e-02	0.00000000e+00
0.55           	9.99991900e-01	6.52819070e-03	1.38735890e-02	3.47764130e-02	0.00000000e+00
0.6            	9.96568240e-01	3.28683440e-02	4.09637140e-02	9.29972870e-02	0.00000000e+00
0.65           	9.94019920e-01	6.37435350e-02	7.15016240e-02	1.55485860e-01	0.00000000e+00
0.7            	9.91683340e-01	1.02037530e-01	1.08479960e-01	2.18284600e-01	0.00000000e+00
0.75           	9.89220320e-01	1.54466370e-01	1.57667830e-01	2.81671900e-01	0.00000000e+00
0.8            	9.85328070e-01	2.38318260e-01	2.32747920e-01	3.42107560e-01	0.00000000e+00
0.85           	9.84465960e-01	4.12707620e-01	3.78747340e-01	3.89255030e-01	0.00000000e+00
0.9            	6.88355500e-01	8.88258650e-01	8.58514940e-01	3.62148850e-01	0.00000000e+00
0.95           	7.24758630e-02	8.15625580e-01	9.97626380e-01	1.99245930e-01	0.00000000e+00
1              	5.61913810e-01	2.72753210e-01	2.10724930e-01	8.49083980e-02	0.00000000e+00
1.05           	9.99991470e-01	4.63453130e-02	1.45194230e-01	6.10410890e-02	0.00000000e+00
1.1            	9.96269050e-01	5.76121290e-01	8.83280380e-01	1.68415650e-01	0.00000000e+00
1.15           	9.93578450e-01	7.04103320e-01	7.49850490e-01	1.86590860e-01	0.00000000e+00
1.2            	9.91101930e-01	3.36034860e-01	3.43515350e-01	2.50396250e-01	0.00000000e+00
1.25           	9.88428640e-01	2.18093220e-01	2.19924450e-01	2.48310500e-01	0.00000000e+00
1.3            	9.84061060e-01	1.55730500e-01	1.53105140e-01	2.18431000e-01	0.00000000e+00
1.35           	9.82588480e-01	1.13404870e-01	1.07570430e-01	1.76578040e-01	0.00000000e+00
1.4            	4.77929740e-01	7.94077640e-02	7.18526290e-02	1.28829430e-01	0.00000000e+00
1.45           	1.63829950e-01	4.98843030e-02	4.12575320e-02	7.78506460e-02	0.00000000e+00
1.5            	6.00168810e-01	2.32690070e-02	1.31050980e-02	2.52261010e-02	0.00000000e+00
1.55           	9.99991790e-01	6.68627360e-03	1.47327700e-02	3.54253160e-02	0.00000000e+00
1.6            	9.96509000e-01	3.58097490e-02	4.46417660e-02	9.48430460e-02	0.00000000e+00
1.65           	9.93931620e-01	7.07295340e-02	7.91841830e-02	1.58502310e-01	0.00000000e+00
1.7            	9.91566700e-01	1.16114540e-01	1.23052180e-01	2.21517320e-01	0.00000000e+00
1.75           	9.89061900e-01	1.83853930e-01	1.86699680e-01	2.82090630e-01	0.00000000e+00
1.8            	9.85076920e-01	3.12154370e-01	3.01653370e-01	3.31042420e-01	0.00000000e+00
1.85           	9.84103030e-01	6.83763560e-01	6.39548650e-01	3.35120010e-01	0.00000000e+00
1.9            	6.38982160e-01	8.80426000e-01	9.99312990e-01	2.08584680e-01	0.00000000e+00
1.95           	9.34526920e-02	3.67449170e-01	3.68195830e-01	8.94574300e-02	0.00000000e+00
2              	5.70638620e-01	1.41734660e-01	1.00796200e-01	5.37758850e-02	0.00000000e+00
2.05           	9.99991560e-01	2.49210200e-02	7.21687550e-02	4.81221130e-02	0.00000000e+00
2.1            	9.96322520e-01	2.18749110e-01	3.34269850e-01	1.34043180e-01	0.00000000e+00
2.15           	9.93656590e-01	8.60491620e-01	9.98697460e-01	1.90682150e-01	0.00000000e+00
2.2            	9.91204520e-01	5.56105910e-01	5.53643510e-01	1.77384090e-01	0.00000000e+00
2.25           	9.88568740e-01	2.81386200e-01	2.80796660e-01	2.19756620e-01	0.00000000e+00
2.3            	9.84287520e-01	1.84156340e-01	1.80113660e-01	2.09267740e-01	0.00000000e+00
2.35           	9.82932770e-01	1.28785870e-01	1.21776750e-01	1.75130520e-01	0.00000000e+00
2.4            	5.09295530e-01	8.83510380e-02	7.97812190e-02	1.29846890e-01	0.00000000e+00
2.45           	1.49857830e-01	5.49929820e-02	4.54654900e-02	7.92272120e-02	0.00000000e+00
2.5            	5.94247070e-01	2.57465920e-02	1.46541810e-02	2.60277300e-02	0.00000000e+00
2.55           	9.99991720e-01	6.86671670e-03	1.55937230e-02	3.60390680e-02	0.00000000e+00
2.6            	9.96471140e-01	3.86795080e-02	4.82641470e-02	9.66908300e-02	0.00000000e+00
2.65           	9.93875410e-01	7.77180910e-02	8.69334430e-02	1.61494940e-01	0.00000000e+00
2.7            	9.91492550e-01	1.30875540e-01	1.38436270e-01	2.24624410e-01	0.00000000e+00
2.75           	9.88961080e-01	2.17665020e-01	2.20204560e-01	2.82131730e-01	0.00000000e+00
2.8            	9.84916470e-01	4.17810740e-01	3.99329350e-01	3.18343090e-01	0.00000000e+00
2.85           	9.83868830e-01	8.99915990e-01	9.98357900e-01	2.64433900e-01	0.00000000e+00
2.9            	6.09724490e-01	6.22565930e-01	7.44715420e-01	1.15387510e-01	0.00000000e+00
2.95           	1.06015620e-01	2.39328880e-01	2.26979710e-01	8.75300670e-02	0.00000000e+00
3              	5.75880970e-01	1.01068170e-01	6.96493860e-02	4.36735680e-02	0.00000000e+00
3.05           	9.99991600e-01	1.83428020e-02	5.16055450e-02	4.40104800e-02	0.00000000e+00
3.1            	9.96354990e-01	1.44229730e-01	2.07138950e-01	1.23127160e-01	0.00000000e+00
3.15           	9.93704200e-01	5.33754430e-01	7.82919590e-01	1.91313890e-01	0.00000000e+00
3.2            	9.91267100e-01	8.66442060e-01	9.97323600e-01	1.47062270e-01	0.00000000e+00
3.25           	9.88654110e-01	3.66275830e-01	3.62144510e-01	1.91351370e-01	0.00000000e+00
3.3            	9.84425030e-01	2.15655340e-01	2.10212530e-01	1.99934810e-01	0.00000000e+00
3.35           	9.83139940e-01	1.44470210e-01	1.36384630e-01	1.73531690e-01	0.00000000e+00
3.4            	5.29471960e-01	9.70900100e-02	8.76015110e-02	1.30835280e-01	0.00000000e+00
3.45           	1.40937570e-01	5.98769670e-02	4.95266270e-02	8.05420480e-02	0.00000000e+00
3.5            	5.90480620e-01	2.80905840e-02	1.61351930e-02	2.68015260e-02	0.00000000e+00
3.55           	9.99991690e-01	7.04700300e-03	1.64420490e-02	3.66209200e-02	0.00000000e+00
3.6            	9.96447200e-01	4.14211900e-02	5.17624390e-02	9.84743680e-02	0.00000000e+00
3.65           	9.93839960e-01	8.45588750e-02	9.45957980e-02	1.64387870e-01	0.00000000e+00
3.7            	9.91445810e-01	1.46029660e-01	1.54372950e-01	2.27670920e-01	0.00000000e+00
3.75           	9.88897480e-01	2.56064070e-01	2.58470220e-01	2.81958460e-01	0.00000000e+00
3.8            	9.84815010e-01	5.71138530e-01	5.44825340e-01	3.01315550e-01	0.00000000e+00
3.85           	9.83719780e-01	9.12853700e-01	9.99229750e-01	2.04739930e-01	0.00000000e+00
3.9            	5.92059580e-01	4.17753290e-01	4.42748090e-01	1.01414780e-01	0.00000000e+00
3.95           	1.13647770e-01	1.85703840e-01	1.72091090e-01	8.68771800e-02	0.00000000e+00
4              	5.79071600e-01	8.16829180e-02	5.51518150e-02	3.87797230e-02	0.00000000e+00
4.05           	9.99991620e-01	1.52904720e-02	4.20527800e-02	4.20854790e-02	0.00000000e+00
4.1            	9.96374880e-01	1.13626180e-01	1.58581110e-01	1.18030440e-01	0.00000000e+00
4.15           	9.93733430e-01	3.48065460e-01	4.62987410e-01	1.87619530e-01	0.00000000e+00
4.2            	9.91305550e-01	9.19826960e-01	9.98971720e-01	1.86215360e-01	0.00000000e+00
4.25           	9.88706530e-01	4.83023230e-01	4.73696320e-01	1.63180390e-01	0.00000000e+00
4.3            	9.84509280e-01	2.49937510e-01	2.43260750e-01	1.90658180e-01	0.00000000e+00
4.35           	9.83266160e-01	1.60107850e-01	1.51111520e-01	1.71895050e-01	0.00000000e+00
4.4            	5.42288190e-01	1.05443810e-01	9.51652200e-02	1.31736870e-01	0.00000000e+00
4.45           	1.35299620e-01	6.42651070e-02	5.33350380e-02	8.17440920e-02	0.00000000e+00
4.5            	5.88098440e-01	3.02622720e-02	1.75248270e-02	2.75347450e-02	0.00000000e+00
4.55           	9.99991680e-01	7.22611390e-03	1.73198220e-02	3.71662530e-02	0.00000000e+00
4.6            	9.96432150e-01	4.39874470e-02	5.50775750e-02	1.00158260e-01	0.00000000e+00
4.65           	9.93817710e-01	9.11124080e-02	1.02024570e-01	1.67121420e-01	0.00000000e+00
4.7            	9.91416500e-01	1.61250110e-01	1.70561950e-01	2.30547130e-01	0.00000000e+00
4.75           	9.88857600e-01	2.99027050e-01	3.01656680e-01	2.81485180e-01	0.00000000e+00
4.8            	9.84751270e-01	7.59732200e-01	7.77651210e-01	2.80085320e-01	0.00000000e+00
4.85           	9.83625760e-01	8.38093900e-01	9.98157760e-01	1.53565110e-01	0.00000000e+00
4.9            	5.81272920e-01	3.24813690e-01	3.31664600e-01	1.09451810e-01	0.00000000e+00
4.95           	1.18324660e-01	1.57120980e-01	1.43348850e-01	8.66170770e-02	0.00000000e+00
5              	5.81027830e-01	7.05274190e-02	4.68995760e-02	3.59505080e-02	0.00000000e+00
5.05           	9.99991630e-01	1.35479330e-02	3.66207870e-02	4.10366850e-02	0.00000000e+00
5.1            	9.96387140e-01	9.72737650e-02	1.33339440e-01	1.15182200e-01	0.00000000e+00
5.15           	9.93751450e-01	2.69420970e-01	3.43292330e-01	1.85425910e-01	0.00000000e+00
5.2            	9.91329270e-01	8.85758000e-01	9.99288630e-01	2.10322620e-01	0.00000000e+00
5.25           	9.88738850e-01	6.41674740e-01	6.32146570e-01	1.35898610e-01	0.00000000e+00
5.3            	9.84561170e-01	2.86583320e-01	2.78961340e-01	1.81682110e-01	0.00000000e+00
5.35           	9.83343640e-01	1.75380120e-01	1.65665830e-01	1.70314670e-01	0.00000000e+00
5.4            	5.50364470e-01	1.13277830e-01	1.02343280e-01	1.32541870e-01	0.00000000e+00
5.45           	1.31758920e-01	6.84584210e-02	5.69104230e-02	8.29026510e-02	0.00000000e+00
5.5            	5.86611410e-01	3.22423470e-02	1.88069250e-02	2.82217230e-02	0.00000000e+00
5.55           	9.99991670e-01	7.39920550e-03	1.81593460e-02	3.76706890e-02	0.00000000e+00
5.6            	9.96422730e-01	4.63472980e-02	5.81631550e-02	1.01722110e-01	0.00000000e+00
5.65           	9.93803810e-01	9.72708520e-02	1.09090480e-01	1.69662790e-01	0.00000000e+00
5.7            	9.91398180e-01	1.76225350e-01	1.86682880e-01	2.33202150e-01	0.00000000e+00
5.75           	9.88832660e-01	3.46374140e-01	3.49745970e-01	2.80733520e-01	0.00000000e+00
5.8            	9.84711400e-01	8.95936320e-01	9.97868430e-01	2.56042300e-01	0.00000000e+00
5.85           	9.83566790e-01	7.02257410e-01	8.54748870e-01	1.16617640e-01	0.00000000e+00
5.9            	5.74640480e-01	2.74857670e-01	2.74802170e-01	1.14828780e-01	0.00000000e+00
5.95           	1.21205740e-01	1.39615020e-01	1.25948730e-01	8.65175870e-02	0.00000000e+00
6              	5.82232380e-01	6.34055380e-02	4.16588370e-02	3.41734020e-02	0.00000000e+00
6.05           	9.99991620e-01	1.24466400e-02	3.31732380e-02	4.03870660e-02	0.00000000e+00
6.1            	9.96394710e-01	8.72748700e-02	1.18118560e-01	1.13413090e-01	0.00000000e+00
6.15           	9.93762610e-01	2.28131870e-01	2.83643320e-01	1.84166000e-01	0.00000000e+00
6.2            	9.91343940e-01	7.64064880e-01	9.80822620e-01	2.19759690e-01	0.00000000e+00
6.25           	9.88758850e-01	8.22504600e-01	8.68082970e-01	1.24648350e-01	0.00000000e+00
6.3            	9.84593240e-01	3.24957690e-01	3.16853990e-01	1.73152170e-01	0.00000000e+00
6.35           	9.83391430e-01	1.89976880e-01	1.79768920e-01	1.68755550e-01	0.00000000e+00
6.4            	5.55428560e-01	1.20483120e-01	1.09033460e-01	1.33257690e-01	0.00000000e+00
6.45           	1.29544300e-01	7.22447700e-02	6.01811700e-02	8.39652200e-02	0.00000000e+00
6.5            	5.85683570e-01	3.40162460e-02	1.99707170e-02	2.88512750e-02	0.00000000e+00
6.55           	9.99991670e-01	7.55737170e-03	1.89233340e-02	3.81303220e-02	0.00000000e+00
6.6            	9.96416850e-01	4.84790290e-02	6.09874460e-02	1.03150470e-01	0.00000000e+00
6.65           	9.93795140e-01	1.02946270e-01	1.15690160e-01	1.71989300e-01	0.00000000e+00
6.7            	9.91386760e-01	1.90642430e-01	2.02420950e-01	2.35609420e-01	0.00000000e+00
6.75           	9.88817120e-01	3.97605300e-01	4.02500590e-01	2.79917400e-01	0.00000000e+00
6.8            	9.84686520e-01	9.23266840e-01	9.98880430e-01	2.34419200e-01	0.00000000e+00
6.85           	9.83529940e-01	5.69561460e-01	6.33344010e-01	1.00344670e-01	0.00000000e+00
6.9            	5.70544710e-01	2.44332310e-01	2.40798270e-01	1.18648200e-01	0.00000000e+00
6.95           	1.22986270e-01	1.28006270e-01	1.14475500e-01	8.64810160e-02	0.00000000e+00
7              	5.82975850e-01	5.85543710e-02	3.80959390e-02	3.30218460e-02	0.00000000e+00
7.05           	9.99991620e-01	1.17018440e-02	3.08303550e-02	3.99569520e-02	0.00000000e+00
7.1            	9.96399410e-01	8.06509120e-02	1.08107180e-01	1.12245490e-01	0.00000000e+00
7.15           	9.93769520e-01	2.03134650e-01	2.48486190e-01	1.83388280e-01	0.00000000e+00
7.2            	9.91353040e-01	6.08066660e-01	7.78811480e-01	2.25541100e-01	0.00000000e+00
7.25           	9.88771240e-01	9.19556240e-01	9.98499690e-01	1.51608200e-01	0.00000000e+00
7.3            	9.84613090e-01	3.64320870e-01	3.56329520e-01	1.65271480e-01	0.00000000e+00
7.35           	9.83420980e-01	2.03654150e-01	1.93176460e-01	1.67272550e-01	0.00000000e+00
7.4            	5.58594240e-01	1.26997500e-01	1.15164890e-01	1.33908780e-01	0.00000000e+00
7.45           	1.28162650e-01	7.56114240e-02	6.31278910e-02	8.49242110e-02	0.00000000e+00
7.5            	5.85106250e-01	3.55825020e-02	2.10118650e-02	2.94197510e-02	0.00000000e+00
7.55           	9.99991670e-01	7.69914740e-03	1.96068470e-02	3.85437150e-02	0.00000000e+00
7.6            	9.96413190e-01	5.03753060e-02	6.35332660e-02	1.04438640e-01	0.00000000e+00
7.65           	9.93789740e-01	1.08086870e-01	1.21750520e-01	1.74118150e-01	0.00000000e+00
7.7            	9.91379650e-01	2.04245740e-01	2.17490710e-01	2.37801270e-01	0.00000000e+00
7.75           	9.88807430e-01	4.52001230e-01	4.59433080e-01	2.78844650e-01	0.00000000e+00
7.8            	9.84671020e-01	9.25765530e-01	9.99367500e-01	2.15547880e-01	0.00000000e+00
7.85           	9.83506960e-01	4.85357210e-01	5.22065200e-01	1.10843050e-01	0.00000000e+00
7.9            	5.68008430e-01	2.24139000e-01	2.18553630e-01	1.21439390e-01	0.00000000e+00
7.95           	1.24088810e-01	1.19906000e-01	1.06478830e-01	8.64771380e-02	0.00000000e+00
8              	5.83435240e-01	5.51061600e-02	3.55601770e-02	3.22682000e-02	0.00000000e+00
8.05           	9.99991620e-01	1.11736480e-02	2.91633380e-02	3.96577800e-02	0.00000000e+00
8.1            	9.96402320e-01	7.60321220e-02	1.01141000e-01	1.11437420e-01	0.00000000e+00
8.15           	9.93773800e-01	1.86695770e-01	2.25689230e-01	1.82891640e-01	0.00000000e+00
8.2            	9.91358680e-01	5.08091290e-01	6.23540850e-01	2.29469290e-01	0.00000000e+00
8.25           	9.88778920e-01	9.25903260e-01	9.99202640e-01	1.73494140e-01	0.00000000e+00
8.3            	9.84625400e-01	4.03827290e-01	3.96662420e-01	1.58025520e-01	0.00000000e+00
8.35           	9.83439280e-01	2.16225830e-01	2.05693470e-01	1.65925390e-01	0.00000000e+00
8.4            	5.60569610e-01	1.32793090e-01	1.20698170e-01	1.34477050e-01	0.00000000e+00
8.45           	1.27302090e-01	7.85624900e-02	6.57463860e-02	8.57716640e-02	0.00000000e+00
8.5            	5.84747810e-01	3.69470030e-02	2.19312460e-02	2.99247280e-02	0.00000000e+00
8.55           	9.99991680e-01	7.82460540e-03	2.02104540e-02	3.89096550e-02	0.00000000e+00
8.6            	9.96410910e-01	5.20383170e-02	6.57965760e-02	1.05583600e-01	0.00000000e+00
8.65           	9.93786380e-01	1.12668000e-01	1.27229430e-01	1.76025690e-01	0.00000000e+00
8.7            	9.91375230e-01	2.16830850e-01	2.31655440e-01	2.39756120e-01	0.00000000e+00
8.75           	9.88801410e-01	5.08571740e-01	5.19798580e-01	2.77306250e-01	0.00000000e+00
8.8            	9.84661380e-01	9.25222950e-01	9.99680160e-01	1.99002080e-01	0.00000000e+00
8.85           	9.83492650e-01	4.32951100e-01	4.56220690e-01	1.18784760e-01	0.00000000e+00
8.9            	5.66435010e-01	2.10030210e-01	2.03132650e-01	1.23530000e-01	0.00000000e+00
8.95           	1.24772310e-01	1.14032900e-01	1.00687440e-01	8.64902390e-02	0.00000000e+00
9              	5.83719150e-01	5.25726420e-02	3.36960400e-02	3.18299310e-02	0.00000000e+00
9.05           	9.99991610e-01	1.07956390e-02	2.79380680e-02	3.94430380e-02	0.00000000e+00
9.1            	9.96404120e-01	7.26847510e-02	9.61018100e-02	1.10860020e-01	0.00000000e+00
9.15           	9.93776460e-01	1.75254040e-01	2.09976720e-01	1.82566440e-01	0.00000000e+00
9.2            	9.91362180e-01	4.48492040e-01	5.36206830e-01	2.32341680e-01	0.00000000e+00
9.25           	9.88783690e-01	9.26283810e-01	9.99530320e-01	1.91372350e-01	0.00000000e+00
9.3            	9.84633040e-01	4.42659850e-01	4.37061160e-01	1.51586060e-01	0.00000000e+00
9.35           	9.83450630e-01	2.27590020e-01	2.17182630e-01	1.64706710e-01	0.00000000e+00
9.4            	5.61801000e-01	1.37880630e-01	1.25622510e-01	1.34969160e-01	0.00000000e+00
9.45           	1.26766670e-01	8.11193910e-02	6.80449000e-02	8.65123530e-02	0.00000000e+00
9.5            	5.84525690e-01	3.81229420e-02	2.27338180e-02	3.03677360e-02	0.00000000e+00
9.55           	9.99991680e-01	7.93582680e-03	2.07373910e-02	3.92303670e-02	0.00000000e+00
9.6            	9.96409490e-01	5.34798360e-02	6.77841340e-02	1.06603310e-01	0.00000000e+00
9.65           	9.93784290e-01	1.16695360e-01	1.32113210e-01	1.77698810e-01	0.00000000e+00
9.7            	9.91372480e-01	2.28274590e-01	2.44739320e-01	2.41457260e-01	0.00000000e+00
9.75           	9.88797660e-01	5.64641730e-01	5.82609540e-01	2.75610050e-01	0.00000000e+00
9.8            	9.84655390e-01	9.21180380e-01	9.99821460e-01	1.83954240e-01	0.00000000e+00
9.85           	9.83483750e-01	3.98073050e-01	4.13411540e-01	1.24912240e-01	0.00000000e+00
9.9            	5.65457650e-01	1.99817150e-01	1.92006510e-01	1.25138480e-01	0.00000000e+00
9.95           	1.25196310e-01	1.09666660e-01	9.63756750e-02	8.65142160e-02	0.00000000e+00
10             	5.83894530e-01	5.06773100e-02	3.22927700e-02	3.15393810e-02	0.00000000e+00
